(set-logic QF_LIA)
(declare-fun x0 () Int)
(declare-fun x1 () Int)
(declare-fun x2 () Int)
(declare-fun x3 () Int)
(declare-fun x4 () Int)
(declare-fun x5 () Int)
(declare-fun x6 () Int)
(declare-fun x7 () Int)
(declare-fun x8 () Int)
(declare-fun x9 () Int)
(declare-fun A0 () Bool)
(declare-fun A1 () Bool)
(declare-fun A2 () Bool)
(declare-fun A3 () Bool)
(declare-fun A4 () Bool)
(declare-fun A5 () Bool)
(declare-fun A6 () Bool)
(declare-fun A7 () Bool)
(declare-fun A8 () Bool)
(declare-fun A9 () Bool)
(assert (let ((.def_0 (* 1 x8))) (let ((.def_1 (* (- 1) x6))) (let ((.def_2 (+ .def_1 .def_0))) (let ((.def_3 (< .def_2 1))) (let ((.def_4 (not .def_3))) (let ((.def_5 (and A2 .def_4))) (let ((.def_6 (not .def_5))) (let ((.def_7 (< .def_0 (- 1)))) (let ((.def_8 (and A6 .def_7))) (let ((.def_9 (not .def_8))) (let ((.def_10 (or .def_9 .def_6))) (let ((.def_11 (* 1 x6))) (let ((.def_12 (* (- 1) x7))) (let ((.def_13 (+ .def_12 .def_11))) (let ((.def_14 (< .def_13 1))) (let ((.def_15 (* (- 1) x5))) (let ((.def_16 (< .def_15 (- 1)))) (let ((.def_17 (not .def_16))) (let ((.def_18 (or .def_17 .def_14))) (let ((.def_19 (not .def_18))) (let ((.def_20 (not A7))) (let ((.def_21 (and .def_20 A9))) (let ((.def_22 (or .def_21 .def_19))) (let ((.def_23 (and .def_22 .def_10))) (let ((.def_24 (not .def_23))) (let ((.def_25 (* (- 1) x8))) (let ((.def_26 (* 1 x5))) (let ((.def_27 (+ .def_26 .def_25))) (let ((.def_28 (< .def_27 (- 1)))) (let ((.def_29 (or .def_28 A5))) (let ((.def_30 (not .def_29))) (let ((.def_31 (* (- 1) x3))) (let ((.def_32 (+ .def_31 .def_0))) (let ((.def_33 (< .def_32 (- 1)))) (let ((.def_34 (* (- 1) x4))) (let ((.def_35 (< .def_34 (- 1)))) (let ((.def_36 (not .def_35))) (let ((.def_37 (and .def_36 .def_33))) (let ((.def_38 (not .def_37))) (let ((.def_39 (or .def_38 .def_30))) (let ((.def_40 (not .def_39))) (let ((.def_41 (* (- 1) x2))) (let ((.def_42 (< .def_41 (- 1)))) (let ((.def_43 (not .def_42))) (let ((.def_44 (and A3 .def_43))) (let ((.def_45 (not .def_44))) (let ((.def_46 (not A6))) (let ((.def_47 (< .def_26 (- 1)))) (let ((.def_48 (not .def_47))) (let ((.def_49 (or .def_48 .def_46))) (let ((.def_50 (not .def_49))) (let ((.def_51 (= .def_50 .def_45))) (let ((.def_52 (not .def_51))) (let ((.def_53 (or .def_52 .def_40))) (let ((.def_54 (and .def_53 .def_24))) (let ((.def_55 (not .def_54))) (let ((.def_56 (not A5))) (let ((.def_57 (or .def_56 .def_43))) (let ((.def_58 (not .def_57))) (let ((.def_59 (+ .def_25 .def_34))) (let ((.def_60 (< .def_59 1))) (let ((.def_61 (not A3))) (let ((.def_62 (or .def_61 .def_60))) (let ((.def_63 (and .def_62 .def_58))) (let ((.def_64 (not A4))) (let ((.def_65 (or .def_46 .def_64))) (let ((.def_66 (* (- 1) x9))) (let ((.def_67 (+ .def_66 .def_31))) (let ((.def_68 (< .def_67 1))) (let ((.def_69 (not .def_68))) (let ((.def_70 (or .def_64 .def_69))) (let ((.def_71 (and .def_70 .def_65))) (let ((.def_72 (not .def_71))) (let ((.def_73 (or .def_72 .def_63))) (let ((.def_74 (not .def_73))) (let ((.def_75 (and .def_64 A7))) (let ((.def_76 (not .def_75))) (let ((.def_77 (+ .def_15 .def_66))) (let ((.def_78 (< .def_77 (- 1)))) (let ((.def_79 (not .def_78))) (let ((.def_80 (and A6 .def_79))) (let ((.def_81 (and .def_80 .def_76))) (let ((.def_82 (not .def_81))) (let ((.def_83 (= .def_46 A5))) (let ((.def_84 (* 1 x7))) (let ((.def_85 (< .def_84 1))) (let ((.def_86 (not .def_85))) (let ((.def_87 (= A0 .def_86))) (let ((.def_88 (not .def_87))) (let ((.def_89 (= .def_88 .def_83))) (let ((.def_90 (and .def_89 .def_82))) (let ((.def_91 (not .def_90))) (let ((.def_92 (and .def_91 .def_74))) (let ((.def_93 (not .def_92))) (let ((.def_94 (and .def_93 .def_55))) (let ((.def_95 (* (- 1) x0))) (let ((.def_96 (< .def_95 (- 1)))) (let ((.def_97 (not .def_96))) (let ((.def_98 (and A7 .def_97))) (let ((.def_99 (not .def_98))) (let ((.def_100 (not A8))) (let ((.def_101 (or A1 .def_100))) (let ((.def_102 (not .def_101))) (let ((.def_103 (or .def_102 .def_99))) (let ((.def_104 (not .def_103))) (let ((.def_105 (or A9 A9))) (let ((.def_106 (not .def_105))) (let ((.def_107 (* (- 1) x1))) (let ((.def_108 (* 1 x4))) (let ((.def_109 (+ .def_108 .def_107))) (let ((.def_110 (< .def_109 (- 1)))) (let ((.def_111 (not .def_110))) (let ((.def_112 (+ .def_0 .def_108))) (let ((.def_113 (< .def_112 (- 1)))) (let ((.def_114 (not .def_113))) (let ((.def_115 (and .def_114 .def_111))) (let ((.def_116 (not .def_115))) (let ((.def_117 (= .def_116 .def_106))) (let ((.def_118 (or .def_117 .def_104))) (let ((.def_119 (not .def_118))) (let ((.def_120 (and A9 A8))) (let ((.def_121 (not .def_120))) (let ((.def_122 (not A1))) (let ((.def_123 (* 1 x3))) (let ((.def_124 (+ .def_123 .def_15))) (let ((.def_125 (< .def_124 1))) (let ((.def_126 (or .def_125 .def_122))) (let ((.def_127 (and .def_126 .def_121))) (let ((.def_128 (+ .def_31 .def_11))) (let ((.def_129 (< .def_128 1))) (let ((.def_130 (not .def_129))) (let ((.def_131 (* 1 x2))) (let ((.def_132 (< .def_131 1))) (let ((.def_133 (not .def_132))) (let ((.def_134 (or .def_133 .def_130))) (let ((.def_135 (not .def_134))) (let ((.def_136 (or A4 .def_56))) (let ((.def_137 (or .def_136 .def_135))) (let ((.def_138 (not .def_137))) (let ((.def_139 (and .def_138 .def_127))) (let ((.def_140 (not .def_139))) (let ((.def_141 (= .def_140 .def_119))) (let ((.def_142 (+ .def_107 .def_108))) (let ((.def_143 (< .def_142 1))) (let ((.def_144 (or .def_143 .def_47))) (let ((.def_145 (not .def_144))) (let ((.def_146 (< .def_25 1))) (let ((.def_147 (not .def_146))) (let ((.def_148 (< .def_31 (- 1)))) (let ((.def_149 (not .def_148))) (let ((.def_150 (= .def_149 .def_147))) (let ((.def_151 (not .def_150))) (let ((.def_152 (or .def_151 .def_145))) (let ((.def_153 (+ .def_41 .def_108))) (let ((.def_154 (< .def_153 1))) (let ((.def_155 (or .def_154 .def_20))) (let ((.def_156 (< .def_1 1))) (let ((.def_157 (not .def_156))) (let ((.def_158 (+ .def_131 .def_15))) (let ((.def_159 (< .def_158 1))) (let ((.def_160 (not .def_159))) (let ((.def_161 (or .def_160 .def_157))) (let ((.def_162 (and .def_161 .def_155))) (let ((.def_163 (= .def_162 .def_152))) (let ((.def_164 (not .def_163))) (let ((.def_165 (+ .def_131 .def_0))) (let ((.def_166 (< .def_165 (- 1)))) (let ((.def_167 (not .def_166))) (let ((.def_168 (+ .def_66 .def_108))) (let ((.def_169 (< .def_168 (- 1)))) (let ((.def_170 (or .def_169 .def_167))) (let ((.def_171 (not .def_170))) (let ((.def_172 (and A7 .def_61))) (let ((.def_173 (and .def_172 .def_171))) (let ((.def_174 (+ .def_66 .def_107))) (let ((.def_175 (< .def_174 (- 1)))) (let ((.def_176 (+ .def_15 .def_0))) (let ((.def_177 (< .def_176 (- 1)))) (let ((.def_178 (= .def_177 .def_175))) (let ((.def_179 (< .def_26 1))) (let ((.def_180 (not .def_179))) (let ((.def_181 (and .def_180 A8))) (let ((.def_182 (and .def_181 .def_178))) (let ((.def_183 (or .def_182 .def_173))) (let ((.def_184 (and .def_183 .def_164))) (let ((.def_185 (not .def_184))) (let ((.def_186 (and .def_185 .def_141))) (let ((.def_187 (not .def_186))) (let ((.def_188 (and .def_187 .def_94))) (let ((.def_189 (< .def_31 1))) (let ((.def_190 (* 1 x1))) (let ((.def_191 (< .def_190 (- 1)))) (let ((.def_192 (not .def_191))) (let ((.def_193 (and .def_192 .def_189))) (let ((.def_194 (+ .def_41 .def_15))) (let ((.def_195 (< .def_194 (- 1)))) (let ((.def_196 (+ .def_0 .def_107))) (let ((.def_197 (< .def_196 (- 1)))) (let ((.def_198 (not .def_197))) (let ((.def_199 (and .def_198 .def_195))) (let ((.def_200 (and .def_199 .def_193))) (let ((.def_201 (and .def_64 .def_42))) (let ((.def_202 (not .def_201))) (let ((.def_203 (+ .def_108 .def_11))) (let ((.def_204 (< .def_203 (- 1)))) (let ((.def_205 (and .def_204 A8))) (let ((.def_206 (not .def_205))) (let ((.def_207 (and .def_206 .def_202))) (let ((.def_208 (= .def_207 .def_200))) (let ((.def_209 (and A3 .def_20))) (let ((.def_210 (= .def_56 A9))) (let ((.def_211 (and .def_210 .def_209))) (let ((.def_212 (not .def_211))) (let ((.def_213 (< .def_12 (- 1)))) (let ((.def_214 (and .def_213 A6))) (let ((.def_215 (+ .def_12 .def_31))) (let ((.def_216 (< .def_215 1))) (let ((.def_217 (not .def_216))) (let ((.def_218 (and .def_217 .def_100))) (let ((.def_219 (and .def_218 .def_214))) (let ((.def_220 (and .def_219 .def_212))) (let ((.def_221 (or .def_220 .def_208))) (let ((.def_222 (+ .def_15 .def_34))) (let ((.def_223 (< .def_222 1))) (let ((.def_224 (not .def_223))) (let ((.def_225 (or .def_36 .def_224))) (let ((.def_226 (not .def_225))) (let ((.def_227 (* 1 x9))) (let ((.def_228 (+ .def_11 .def_227))) (let ((.def_229 (< .def_228 1))) (let ((.def_230 (not .def_229))) (let ((.def_231 (and .def_191 .def_230))) (let ((.def_232 (not .def_231))) (let ((.def_233 (or .def_232 .def_226))) (let ((.def_234 (not .def_233))) (let ((.def_235 (+ .def_84 .def_0))) (let ((.def_236 (< .def_235 (- 1)))) (let ((.def_237 (not .def_236))) (let ((.def_238 (= .def_237 .def_46))) (let ((.def_239 (< .def_84 (- 1)))) (let ((.def_240 (not .def_239))) (let ((.def_241 (+ .def_34 .def_31))) (let ((.def_242 (< .def_241 (- 1)))) (let ((.def_243 (or .def_242 .def_240))) (let ((.def_244 (not .def_243))) (let ((.def_245 (or .def_244 .def_238))) (let ((.def_246 (not .def_245))) (let ((.def_247 (= .def_246 .def_234))) (let ((.def_248 (not .def_247))) (let ((.def_249 (and .def_17 A9))) (let ((.def_250 (+ .def_227 .def_95))) (let ((.def_251 (< .def_250 1))) (let ((.def_252 (not .def_251))) (let ((.def_253 (and .def_252 A6))) (let ((.def_254 (and .def_253 .def_249))) (let ((.def_255 (not .def_254))) (let ((.def_256 (< .def_123 (- 1)))) (let ((.def_257 (= .def_20 .def_256))) (let ((.def_258 (not .def_257))) (let ((.def_259 (+ .def_84 .def_34))) (let ((.def_260 (< .def_259 (- 1)))) (let ((.def_261 (not .def_260))) (let ((.def_262 (and .def_261 A3))) (let ((.def_263 (= .def_262 .def_258))) (let ((.def_264 (not .def_263))) (let ((.def_265 (or .def_264 .def_255))) (let ((.def_266 (not .def_265))) (let ((.def_267 (or .def_266 .def_248))) (let ((.def_268 (not .def_267))) (let ((.def_269 (and .def_268 .def_221))) (let ((.def_270 (not A0))) (let ((.def_271 (or .def_270 .def_64))) (let ((.def_272 (not .def_271))) (let ((.def_273 (or .def_46 A3))) (let ((.def_274 (not .def_273))) (let ((.def_275 (or .def_274 .def_272))) (let ((.def_276 (not .def_275))) (let ((.def_277 (< .def_15 1))) (let ((.def_278 (< .def_109 1))) (let ((.def_279 (and .def_278 .def_277))) (let ((.def_280 (not .def_279))) (let ((.def_281 (not .def_256))) (let ((.def_282 (not .def_154))) (let ((.def_283 (and .def_282 .def_281))) (let ((.def_284 (not .def_283))) (let ((.def_285 (= .def_284 .def_280))) (let ((.def_286 (not .def_285))) (let ((.def_287 (= .def_286 .def_276))) (let ((.def_288 (not .def_287))) (let ((.def_289 (< .def_123 1))) (let ((.def_290 (not .def_289))) (let ((.def_291 (or .def_290 A5))) (let ((.def_292 (not A2))) (let ((.def_293 (or .def_292 A6))) (let ((.def_294 (not .def_293))) (let ((.def_295 (or .def_294 .def_291))) (let ((.def_296 (< .def_227 (- 1)))) (let ((.def_297 (not .def_296))) (let ((.def_298 (and A0 .def_297))) (let ((.def_299 (+ .def_84 .def_95))) (let ((.def_300 (< .def_299 1))) (let ((.def_301 (< .def_190 1))) (let ((.def_302 (or .def_301 .def_300))) (let ((.def_303 (not .def_302))) (let ((.def_304 (or .def_303 .def_298))) (let ((.def_305 (or .def_304 .def_295))) (let ((.def_306 (or .def_305 .def_288))) (let ((.def_307 (+ .def_25 .def_107))) (let ((.def_308 (< .def_307 1))) (let ((.def_309 (not .def_308))) (let ((.def_310 (or .def_100 .def_309))) (let ((.def_311 (not .def_310))) (let ((.def_312 (+ .def_34 .def_95))) (let ((.def_313 (< .def_312 (- 1)))) (let ((.def_314 (and .def_313 .def_270))) (let ((.def_315 (or .def_314 .def_311))) (let ((.def_316 (+ .def_41 .def_123))) (let ((.def_317 (< .def_316 1))) (let ((.def_318 (or .def_292 .def_317))) (let ((.def_319 (not .def_318))) (let ((.def_320 (and .def_96 .def_96))) (let ((.def_321 (and .def_320 .def_319))) (let ((.def_322 (not .def_321))) (let ((.def_323 (or .def_322 .def_315))) (let ((.def_324 (+ .def_1 .def_34))) (let ((.def_325 (< .def_324 1))) (let ((.def_326 (not .def_325))) (let ((.def_327 (and .def_326 .def_100))) (let ((.def_328 (not A9))) (let ((.def_329 (and A9 .def_328))) (let ((.def_330 (and .def_329 .def_327))) (let ((.def_331 (< .def_11 (- 1)))) (let ((.def_332 (not .def_331))) (let ((.def_333 (or .def_149 .def_332))) (let ((.def_334 (not .def_333))) (let ((.def_335 (= A6 A5))) (let ((.def_336 (and .def_335 .def_334))) (let ((.def_337 (or .def_336 .def_330))) (let ((.def_338 (and .def_337 .def_323))) (let ((.def_339 (and .def_338 .def_306))) (let ((.def_340 (not .def_339))) (let ((.def_341 (and .def_340 .def_269))) (let ((.def_342 (and .def_341 .def_188))) (let ((.def_343 (or A6 A9))) (let ((.def_344 (or A6 A6))) (let ((.def_345 (or .def_344 .def_343))) (let ((.def_346 (not .def_345))) (let ((.def_347 (< .def_34 1))) (let ((.def_348 (not .def_347))) (let ((.def_349 (or .def_348 .def_348))) (let ((.def_350 (not .def_349))) (let ((.def_351 (< .def_41 1))) (let ((.def_352 (not .def_351))) (let ((.def_353 (and .def_352 .def_277))) (let ((.def_354 (not .def_353))) (let ((.def_355 (and .def_354 .def_350))) (let ((.def_356 (not .def_355))) (let ((.def_357 (= .def_356 .def_346))) (let ((.def_358 (not .def_357))) (let ((.def_359 (or A6 .def_240))) (let ((.def_360 (not .def_359))) (let ((.def_361 (not .def_277))) (let ((.def_362 (and .def_292 .def_361))) (let ((.def_363 (and .def_362 .def_360))) (let ((.def_364 (not .def_363))) (let ((.def_365 (= .def_213 .def_132))) (let ((.def_366 (+ .def_95 .def_107))) (let ((.def_367 (< .def_366 1))) (let ((.def_368 (or .def_256 .def_367))) (let ((.def_369 (or .def_368 .def_365))) (let ((.def_370 (= .def_369 .def_364))) (let ((.def_371 (not .def_370))) (let ((.def_372 (and .def_371 .def_358))) (let ((.def_373 (+ .def_41 .def_26))) (let ((.def_374 (< .def_373 (- 1)))) (let ((.def_375 (< .def_66 (- 1)))) (let ((.def_376 (and .def_375 .def_374))) (let ((.def_377 (not .def_376))) (let ((.def_378 (+ .def_123 .def_227))) (let ((.def_379 (< .def_378 (- 1)))) (let ((.def_380 (or .def_379 .def_156))) (let ((.def_381 (not .def_380))) (let ((.def_382 (or .def_381 .def_377))) (let ((.def_383 (not .def_382))) (let ((.def_384 (+ .def_123 .def_1))) (let ((.def_385 (< .def_384 (- 1)))) (let ((.def_386 (not .def_385))) (let ((.def_387 (and .def_64 .def_386))) (let ((.def_388 (* 1 x0))) (let ((.def_389 (< .def_388 (- 1)))) (let ((.def_390 (or .def_389 .def_100))) (let ((.def_391 (not .def_390))) (let ((.def_392 (and .def_391 .def_387))) (let ((.def_393 (not .def_392))) (let ((.def_394 (or .def_393 .def_383))) (let ((.def_395 (not .def_394))) (let ((.def_396 (< .def_25 (- 1)))) (let ((.def_397 (not .def_396))) (let ((.def_398 (+ .def_131 .def_84))) (let ((.def_399 (< .def_398 1))) (let ((.def_400 (and .def_399 .def_397))) (let ((.def_401 (not .def_400))) (let ((.def_402 (and .def_289 .def_389))) (let ((.def_403 (not .def_402))) (let ((.def_404 (and .def_403 .def_401))) (let ((.def_405 (+ .def_227 .def_1))) (let ((.def_406 (< .def_405 1))) (let ((.def_407 (and .def_328 .def_406))) (let ((.def_408 (+ .def_108 .def_66))) (let ((.def_409 (< .def_408 1))) (let ((.def_410 (and .def_409 .def_179))) (let ((.def_411 (not .def_410))) (let ((.def_412 (and .def_411 .def_407))) (let ((.def_413 (or .def_412 .def_404))) (let ((.def_414 (and .def_413 .def_395))) (let ((.def_415 (not .def_414))) (let ((.def_416 (and .def_415 .def_372))) (let ((.def_417 (not .def_416))) (let ((.def_418 (< .def_95 1))) (let ((.def_419 (not .def_418))) (let ((.def_420 (and A7 .def_419))) (let ((.def_421 (< .def_388 1))) (let ((.def_422 (not .def_421))) (let ((.def_423 (or .def_132 .def_422))) (let ((.def_424 (or .def_423 .def_420))) (let ((.def_425 (and A4 A7))) (let ((.def_426 (not .def_425))) (let ((.def_427 (+ .def_190 .def_31))) (let ((.def_428 (< .def_427 (- 1)))) (let ((.def_429 (not .def_428))) (let ((.def_430 (or .def_429 .def_270))) (let ((.def_431 (not .def_430))) (let ((.def_432 (and .def_431 .def_426))) (let ((.def_433 (and .def_432 .def_424))) (let ((.def_434 (not .def_433))) (let ((.def_435 (or .def_64 .def_17))) (let ((.def_436 (not .def_435))) (let ((.def_437 (and .def_156 .def_61))) (let ((.def_438 (and .def_437 .def_436))) (let ((.def_439 (and A3 .def_56))) (let ((.def_440 (not .def_439))) (let ((.def_441 (not .def_213))) (let ((.def_442 (and .def_441 .def_180))) (let ((.def_443 (and .def_442 .def_440))) (let ((.def_444 (and .def_443 .def_438))) (let ((.def_445 (or .def_444 .def_434))) (let ((.def_446 (< .def_12 1))) (let ((.def_447 (= .def_270 .def_446))) (let ((.def_448 (not .def_447))) (let ((.def_449 (and .def_296 A5))) (let ((.def_450 (or .def_449 .def_448))) (let ((.def_451 (not .def_450))) (let ((.def_452 (+ .def_34 .def_388))) (let ((.def_453 (< .def_452 1))) (let ((.def_454 (not .def_453))) (let ((.def_455 (or A4 .def_454))) (let ((.def_456 (not .def_455))) (let ((.def_457 (+ .def_227 .def_0))) (let ((.def_458 (< .def_457 1))) (let ((.def_459 (+ .def_1 .def_190))) (let ((.def_460 (< .def_459 1))) (let ((.def_461 (not .def_460))) (let ((.def_462 (and .def_461 .def_458))) (let ((.def_463 (not .def_462))) (let ((.def_464 (= .def_463 .def_456))) (let ((.def_465 (not .def_464))) (let ((.def_466 (= .def_465 .def_451))) (let ((.def_467 (not .def_466))) (let ((.def_468 (+ .def_107 .def_1))) (let ((.def_469 (< .def_468 (- 1)))) (let ((.def_470 (< .def_108 (- 1)))) (let ((.def_471 (not .def_470))) (let ((.def_472 (or .def_471 .def_469))) (let ((.def_473 (not .def_472))) (let ((.def_474 (or .def_239 .def_20))) (let ((.def_475 (or .def_474 .def_473))) (let ((.def_476 (and .def_46 A4))) (let ((.def_477 (< .def_299 (- 1)))) (let ((.def_478 (or .def_97 .def_477))) (let ((.def_479 (or .def_478 .def_476))) (let ((.def_480 (and .def_479 .def_475))) (let ((.def_481 (not .def_480))) (let ((.def_482 (or .def_481 .def_467))) (let ((.def_483 (or .def_482 .def_445))) (let ((.def_484 (not .def_483))) (let ((.def_485 (and .def_484 .def_417))) (let ((.def_486 (not .def_485))) (let ((.def_487 (< .def_108 1))) (let ((.def_488 (not .def_487))) (let ((.def_489 (and .def_488 A2))) (let ((.def_490 (+ .def_66 .def_11))) (let ((.def_491 (< .def_490 1))) (let ((.def_492 (= .def_491 .def_292))) (let ((.def_493 (not .def_492))) (let ((.def_494 (or .def_493 .def_489))) (let ((.def_495 (not .def_494))) (let ((.def_496 (+ .def_84 .def_11))) (let ((.def_497 (< .def_496 (- 1)))) (let ((.def_498 (and A9 .def_497))) (let ((.def_499 (= A5 .def_301))) (let ((.def_500 (not .def_499))) (let ((.def_501 (or .def_500 .def_498))) (let ((.def_502 (and .def_501 .def_495))) (let ((.def_503 (and A5 .def_296))) (let ((.def_504 (+ .def_123 .def_66))) (let ((.def_505 (< .def_504 (- 1)))) (let ((.def_506 (not .def_505))) (let ((.def_507 (not .def_389))) (let ((.def_508 (or .def_507 .def_506))) (let ((.def_509 (or .def_508 .def_503))) (let ((.def_510 (or .def_56 .def_20))) (let ((.def_511 (and .def_396 .def_100))) (let ((.def_512 (or .def_511 .def_510))) (let ((.def_513 (not .def_512))) (let ((.def_514 (or .def_513 .def_509))) (let ((.def_515 (not .def_514))) (let ((.def_516 (or .def_515 .def_502))) (let ((.def_517 (and A4 .def_292))) (let ((.def_518 (not .def_517))) (let ((.def_519 (+ .def_84 .def_66))) (let ((.def_520 (< .def_519 (- 1)))) (let ((.def_521 (and .def_351 .def_520))) (let ((.def_522 (not .def_521))) (let ((.def_523 (and .def_522 .def_518))) (let ((.def_524 (not .def_523))) (let ((.def_525 (+ .def_11 .def_131))) (let ((.def_526 (< .def_525 (- 1)))) (let ((.def_527 (= A2 .def_526))) (let ((.def_528 (not .def_527))) (let ((.def_529 (+ .def_34 .def_1))) (let ((.def_530 (< .def_529 (- 1)))) (let ((.def_531 (not .def_530))) (let ((.def_532 (and .def_531 .def_239))) (let ((.def_533 (= .def_532 .def_528))) (let ((.def_534 (not .def_533))) (let ((.def_535 (or .def_534 .def_524))) (let ((.def_536 (not .def_535))) (let ((.def_537 (+ .def_31 .def_25))) (let ((.def_538 (< .def_537 (- 1)))) (let ((.def_539 (or .def_122 .def_538))) (let ((.def_540 (= .def_86 .def_328))) (let ((.def_541 (or .def_540 .def_539))) (let ((.def_542 (+ .def_108 .def_1))) (let ((.def_543 (< .def_542 1))) (let ((.def_544 (or A0 .def_543))) (let ((.def_545 (or .def_428 .def_277))) (let ((.def_546 (not .def_545))) (let ((.def_547 (or .def_546 .def_544))) (let ((.def_548 (not .def_547))) (let ((.def_549 (and .def_548 .def_541))) (let ((.def_550 (and .def_549 .def_536))) (let ((.def_551 (= .def_550 .def_516))) (let ((.def_552 (not .def_551))) (let ((.def_553 (+ .def_15 .def_388))) (let ((.def_554 (< .def_553 (- 1)))) (let ((.def_555 (not .def_554))) (let ((.def_556 (= .def_555 A9))) (let ((.def_557 (+ .def_190 .def_41))) (let ((.def_558 (< .def_557 (- 1)))) (let ((.def_559 (= .def_558 A6))) (let ((.def_560 (not .def_559))) (let ((.def_561 (or .def_560 .def_556))) (let ((.def_562 (not .def_561))) (let ((.def_563 (and A1 A2))) (let ((.def_564 (+ .def_31 .def_26))) (let ((.def_565 (< .def_564 1))) (let ((.def_566 (not .def_565))) (let ((.def_567 (and .def_56 .def_566))) (let ((.def_568 (or .def_567 .def_563))) (let ((.def_569 (not .def_568))) (let ((.def_570 (or .def_569 .def_562))) (let ((.def_571 (not .def_570))) (let ((.def_572 (+ .def_11 .def_41))) (let ((.def_573 (< .def_572 (- 1)))) (let ((.def_574 (not .def_573))) (let ((.def_575 (< .def_2 (- 1)))) (let ((.def_576 (and .def_575 .def_574))) (let ((.def_577 (not .def_576))) (let ((.def_578 (= A3 A1))) (let ((.def_579 (and .def_578 .def_577))) (let ((.def_580 (not .def_579))) (let ((.def_581 (or .def_16 .def_147))) (let ((.def_582 (not .def_581))) (let ((.def_583 (< .def_0 1))) (let ((.def_584 (not .def_583))) (let ((.def_585 (and .def_584 .def_270))) (let ((.def_586 (not .def_585))) (let ((.def_587 (and .def_586 .def_582))) (let ((.def_588 (and .def_587 .def_580))) (let ((.def_589 (or .def_588 .def_571))) (let ((.def_590 (not .def_589))) (let ((.def_591 (< .def_11 1))) (let ((.def_592 (not .def_591))) (let ((.def_593 (or .def_592 .def_270))) (let ((.def_594 (not .def_593))) (let ((.def_595 (or .def_328 A1))) (let ((.def_596 (not .def_595))) (let ((.def_597 (and .def_596 .def_594))) (let ((.def_598 (not .def_597))) (let ((.def_599 (and .def_292 .def_61))) (let ((.def_600 (and .def_592 .def_46))) (let ((.def_601 (not .def_600))) (let ((.def_602 (and .def_601 .def_599))) (let ((.def_603 (or .def_602 .def_598))) (let ((.def_604 (not .def_603))) (let ((.def_605 (and .def_530 .def_56))) (let ((.def_606 (or A6 A0))) (let ((.def_607 (not .def_606))) (let ((.def_608 (or .def_607 .def_605))) (let ((.def_609 (or .def_122 A8))) (let ((.def_610 (and A4 A1))) (let ((.def_611 (not .def_610))) (let ((.def_612 (and .def_611 .def_609))) (let ((.def_613 (not .def_612))) (let ((.def_614 (and .def_613 .def_608))) (let ((.def_615 (not .def_614))) (let ((.def_616 (or .def_615 .def_604))) (let ((.def_617 (or .def_616 .def_590))) (let ((.def_618 (and .def_617 .def_552))) (let ((.def_619 (not .def_618))) (let ((.def_620 (or .def_619 .def_486))) (let ((.def_621 (not .def_620))) (let ((.def_622 (or .def_621 .def_342))) (let ((.def_623 (<= x9 1))) (let ((.def_624 (<= 0 x9))) (let ((.def_625 (<= x8 1))) (let ((.def_626 (<= 0 x8))) (let ((.def_627 (<= x7 1))) (let ((.def_628 (<= 0 x7))) (let ((.def_629 (<= x6 1))) (let ((.def_630 (<= 0 x6))) (let ((.def_631 (<= x5 1))) (let ((.def_632 (<= 0 x5))) (let ((.def_633 (<= x4 1))) (let ((.def_634 (<= 0 x4))) (let ((.def_635 (<= x3 1))) (let ((.def_636 (<= 0 x3))) (let ((.def_637 (<= x2 1))) (let ((.def_638 (<= 0 x2))) (let ((.def_639 (<= x1 1))) (let ((.def_640 (<= 0 x1))) (let ((.def_641 (<= x0 1))) (let ((.def_642 (<= 0 x0))) (let ((.def_643 (and .def_642 .def_641 .def_640 .def_639 .def_638 .def_637 .def_636 .def_635 .def_634 .def_633 .def_632 .def_631 .def_630 .def_629 .def_628 .def_627 .def_626 .def_625 .def_624 .def_623 .def_622))) .def_643)))))))))))))))))))))))))))))))))))))))))))))))))))))))))))))))))))))))))))))))))))))))))))))))))))))))))))))))))))))))))))))))))))))))))))))))))))))))))))))))))))))))))))))))))))))))))))))))))))))))))))))))))))))))))))))))))))))))))))))))))))))))))))))))))))))))))))))))))))))))))))))))))))))))))))))))))))))))))))))))))))))))))))))))))))))))))))))))))))))))))))))))))))))))))))))))))))))))))))))))))))))))))))))))))))))))))))))))))))))))))))))))))))))))))))))))))))))))))))))))))))))))))))))))))))))))))))))))))))))))))))))))))))))))))))))))))))))))))))))))))))))))))))))))))))))))))))))))))))))))))))))))))))))))))))))))))))))))))))))))))))))
(check-sat)
